0 34 37
1 40 42
2 45 45
3 42 44
4 35 43
5 44 45
6 40 43
7 39 40
8 37 38
9 28 37
10 37 39
11 39 39
12 29 38
13 29 36
14 35 36
15 34 34
16 34 34
17 30 33
18 28 31
19 24 32
20 20 30
21 28 30
22 18 29
23 26 29
24 20 29
25 29 29
26 23 28
27 25 26
28 17 26
29 22 25
30 26 27
31 23 27
32 23 27
33 25 27
34 22 26
35 20 25
36 23 23
37 15 22
38 22 22
39 21 21
40 21 21
41 11 20
42 10 19
43 16 17
44 11 16
45 11 13
46 5 11
47 13 13
48 10 11
49 4 9
50 12 14
51 13 13
52 11 13
53 11 15
54 15 15
55 11 13
56 11 11
57 8 10
58 6 7
59 5 5
60 6 6
61 4 5
62 3 3
63 3 4
64 3 3
65 2 2
66 1 2
67 1 1

